MARKOV
233
 2 2 2 2 2 2 2 2 2 2 2 2 2 2 2 2 2 2 2 2 2 2 2 2 2 2 2 2 2 2 2 2 2 2 2 2 2 2 2 2 2 2 2 2 2 2 2 2 2 2 2 2 2 2 2 2 2 2 2 2 2 2 2 2 2 2 2 2 2 2 2 2 2 2 2 2 2 2 2 2 2 2 2 2 2 2 2 2 2 2 2 2 2 2 2 2 2 2 2 2 2 2 2 2 2 2 2 2 2 2 2 2 2 2 2 2 2 2 2 2 2 2 2 2 2 2 2 2 2 2 2 2 2 2 2 2 2 2 2 2 2 2 2 2 2 2 2 2 2 2 2 2 2 2 2 2 2 2 2 2 2 2 2 2 2 2 2 2 2 2 2 2 2 2 2 2 2 2 2 2 2 2 2 2 2 2 2 2 2 2 2 2 2 2 2 2 2 2 2 2 2 2 2 2 2 2 2 2 2 2 2 2 2 2 2 2 2 2 2 2 2 2 2 2 2 2 2 2 2 2 2 2 2
862
1	0 
1	1 
1	2 
1	3 
1	4 
1	5 
1	6 
1	7 
1	8 
1	9 
1	10 
1	11 
1	12 
1	13 
1	14 
1	15 
1	16 
1	17 
1	18 
1	19 
1	20 
1	21 
1	22 
1	23 
1	24 
1	25 
1	26 
1	27 
1	28 
1	29 
1	30 
1	31 
1	32 
1	33 
1	34 
1	35 
1	36 
1	37 
1	38 
1	39 
1	40 
1	41 
1	42 
1	43 
1	44 
1	45 
1	46 
1	47 
1	48 
1	49 
1	50 
1	51 
1	52 
1	53 
1	54 
1	55 
1	56 
1	57 
1	58 
1	59 
1	60 
1	61 
1	62 
1	63 
1	64 
1	65 
1	66 
1	67 
1	68 
1	69 
1	70 
1	71 
1	72 
1	73 
1	74 
1	75 
1	76 
1	77 
1	78 
1	79 
1	80 
1	81 
1	82 
1	83 
1	84 
1	85 
1	86 
1	87 
1	88 
1	89 
1	90 
1	91 
1	92 
1	93 
1	94 
1	95 
1	96 
1	97 
1	98 
1	99 
1	100 
1	101 
1	102 
1	103 
1	104 
1	105 
1	106 
1	107 
1	108 
1	109 
1	110 
1	111 
1	112 
1	113 
1	114 
1	115 
1	116 
1	117 
1	118 
1	119 
1	120 
1	121 
1	122 
1	123 
1	124 
1	125 
1	126 
1	127 
1	128 
1	129 
1	130 
1	131 
1	132 
1	133 
1	134 
1	135 
1	136 
1	137 
1	138 
1	139 
1	140 
1	141 
1	142 
1	143 
1	144 
1	145 
1	146 
1	147 
1	148 
1	149 
1	150 
1	151 
1	152 
1	153 
1	154 
1	155 
1	156 
1	157 
1	158 
1	159 
1	160 
1	161 
1	162 
1	163 
1	164 
1	165 
1	166 
1	167 
1	168 
1	169 
1	170 
1	171 
1	172 
1	173 
1	174 
1	175 
1	176 
1	177 
1	178 
1	179 
1	180 
1	181 
1	182 
1	183 
1	184 
1	185 
1	186 
1	187 
1	188 
1	189 
1	190 
1	191 
1	192 
1	193 
1	194 
1	195 
1	196 
1	197 
1	198 
1	199 
1	200 
1	201 
1	202 
1	203 
1	204 
1	205 
1	206 
1	207 
1	208 
1	209 
1	210 
1	211 
1	212 
1	213 
1	214 
1	215 
1	216 
1	217 
1	218 
1	219 
1	220 
1	221 
1	222 
1	223 
1	224 
1	225 
1	226 
1	227 
1	228 
1	229 
1	230 
1	231 
1	232 
2	1 2 
2	1 12 
2	1 143 
2	1 145 
2	1 152 
2	1 154 
2	2 118 
2	2 143 
2	2 153 
2	2 154 
2	3 4 
2	3 6 
2	3 139 
2	3 141 
2	4 100 
2	4 138 
2	4 139 
2	5 6 
2	5 207 
2	5 208 
2	5 209 
2	6 141 
2	6 208 
2	7 8 
2	7 9 
2	7 41 
2	7 42 
2	7 83 
2	7 84 
2	7 193 
2	8 9 
2	8 83 
2	8 85 
2	9 41 
2	10 14 
2	10 15 
2	10 163 
2	10 165 
2	10 171 
2	11 12 
2	11 13 
2	11 14 
2	11 104 
2	11 152 
2	12 14 
2	12 144 
2	12 145 
2	12 152 
2	13 14 
2	13 15 
2	13 104 
2	13 173 
2	13 220 
2	14 15 
2	14 144 
2	14 163 
2	15 171 
2	15 173 
2	15 174 
2	16 17 
2	16 18 
2	16 71 
2	16 73 
2	16 186 
2	16 188 
2	17 71 
2	17 186 
2	18 19 
2	18 73 
2	18 185 
2	18 188 
2	18 199 
2	19 159 
2	19 160 
2	19 185 
2	19 199 
2	19 230 
2	20 21 
2	20 22 
2	20 23 
2	20 29 
2	20 30 
2	21 22 
2	21 30 
2	21 36 
2	21 38 
2	22 23 
2	23 24 
2	23 25 
2	23 29 
2	23 32 
2	24 25 
2	25 31 
2	25 32 
2	26 27 
2	26 28 
2	26 29 
2	26 32 
2	26 191 
2	26 192 
2	27 29 
2	27 30 
2	27 37 
2	27 106 
2	27 190 
2	27 192 
2	28 31 
2	28 32 
2	28 191 
2	29 30 
2	29 32 
2	30 37 
2	30 38 
2	31 32 
2	33 34 
2	33 35 
2	33 36 
2	33 38 
2	34 35 
2	34 37 
2	34 38 
2	34 108 
2	34 226 
2	35 45 
2	35 47 
2	35 226 
2	36 38 
2	37 38 
2	37 106 
2	37 108 
2	39 40 
2	39 42 
2	39 70 
2	39 193 
2	39 195 
2	39 201 
2	40 41 
2	40 42 
2	40 70 
2	40 72 
2	41 42 
2	42 193 
2	43 44 
2	43 45 
2	43 46 
2	43 47 
2	43 221 
2	43 227 
2	44 46 
2	44 47 
2	44 63 
2	45 47 
2	45 226 
2	45 227 
2	46 61 
2	46 63 
2	46 221 
2	46 223 
2	48 49 
2	48 50 
2	48 52 
2	48 53 
2	48 56 
2	49 50 
2	49 51 
2	49 53 
2	49 55 
2	49 59 
2	49 60 
2	50 52 
2	50 57 
2	50 58 
2	50 59 
2	51 55 
2	51 60 
2	51 166 
2	51 168 
2	52 57 
2	53 54 
2	53 55 
2	53 56 
2	54 56 
2	55 166 
2	57 58 
2	57 151 
2	58 59 
2	58 148 
2	58 150 
2	58 151 
2	58 177 
2	59 60 
2	59 177 
2	59 179 
2	60 168 
2	60 176 
2	60 179 
2	61 62 
2	61 63 
2	61 86 
2	61 88 
2	61 89 
2	61 223 
2	62 63 
2	62 86 
2	64 65 
2	64 67 
2	64 122 
2	64 135 
2	64 137 
2	64 204 
2	64 218 
2	65 67 
2	65 68 
2	65 202 
2	65 206 
2	66 68 
2	66 76 
2	66 77 
2	66 196 
2	66 198 
2	66 203 
2	67 68 
2	67 135 
2	67 140 
2	67 142 
2	68 142 
2	68 198 
2	68 202 
2	68 203 
2	69 70 
2	69 71 
2	69 72 
2	69 73 
2	70 72 
2	70 73 
2	70 199 
2	70 201 
2	71 73 
2	73 199 
2	74 75 
2	74 76 
2	74 78 
2	74 113 
2	74 115 
2	74 162 
2	74 163 
2	75 76 
2	75 162 
2	75 203 
2	76 77 
2	76 78 
2	76 203 
2	77 78 
2	77 82 
2	77 196 
2	77 197 
2	78 79 
2	78 80 
2	78 82 
2	78 115 
2	79 80 
2	79 115 
2	79 116 
2	79 193 
2	79 194 
2	80 82 
2	80 83 
2	80 84 
2	80 193 
2	81 82 
2	81 83 
2	81 85 
2	81 197 
2	81 209 
2	82 83 
2	82 197 
2	83 84 
2	83 85 
2	84 193 
2	85 207 
2	85 209 
2	86 89 
2	86 146 
2	86 150 
2	87 88 
2	87 89 
2	87 102 
2	87 103 
2	87 147 
2	87 148 
2	87 149 
2	88 89 
2	88 102 
2	88 222 
2	88 223 
2	89 148 
2	89 150 
2	90 92 
2	90 93 
2	90 94 
2	90 210 
2	91 92 
2	91 94 
2	91 156 
2	91 187 
2	91 189 
2	92 94 
2	92 187 
2	93 94 
2	93 184 
2	93 210 
2	93 211 
2	94 156 
2	94 158 
2	94 184 
2	95 96 
2	95 97 
2	95 98 
2	95 101 
2	95 213 
2	95 214 
2	95 215 
2	96 97 
2	96 212 
2	96 214 
2	97 98 
2	97 99 
2	98 99 
2	98 100 
2	98 101 
2	100 101 
2	100 138 
2	101 138 
2	101 140 
2	101 215 
2	102 103 
2	102 104 
2	102 220 
2	102 222 
2	103 104 
2	103 147 
2	103 152 
2	103 154 
2	104 152 
2	104 220 
2	105 107 
2	105 109 
2	105 110 
2	105 111 
2	105 131 
2	105 175 
2	106 108 
2	106 109 
2	106 190 
2	107 108 
2	107 109 
2	107 175 
2	107 225 
2	108 109 
2	108 225 
2	108 226 
2	108 229 
2	109 131 
2	109 190 
2	110 111 
2	110 131 
2	110 216 
2	110 231 
2	111 112 
2	111 175 
2	111 231 
2	111 232 
2	112 170 
2	112 175 
2	112 205 
2	112 232 
2	113 115 
2	113 116 
2	113 144 
2	113 163 
2	114 116 
2	114 117 
2	114 143 
2	114 145 
2	114 194 
2	114 195 
2	115 116 
2	116 144 
2	116 145 
2	116 194 
2	117 143 
2	117 157 
2	117 161 
2	117 195 
2	117 200 
2	118 119 
2	118 143 
2	118 153 
2	118 180 
2	118 184 
2	119 143 
2	119 158 
2	119 161 
2	119 184 
2	120 121 
2	120 122 
2	120 123 
2	120 133 
2	120 134 
2	120 217 
2	121 123 
2	121 124 
2	121 125 
2	121 127 
2	121 217 
2	122 133 
2	122 137 
2	122 217 
2	122 218 
2	123 125 
2	123 134 
2	123 136 
2	124 126 
2	124 127 
2	124 129 
2	124 130 
2	124 217 
2	124 219 
2	125 127 
2	126 127 
2	126 128 
2	126 130 
2	128 130 
2	128 191 
2	129 130 
2	129 132 
2	129 192 
2	129 219 
2	130 191 
2	130 192 
2	131 132 
2	131 190 
2	131 216 
2	132 190 
2	132 192 
2	132 219 
2	133 134 
2	133 135 
2	133 137 
2	133 213 
2	133 215 
2	134 136 
2	134 212 
2	134 214 
2	135 137 
2	135 140 
2	135 215 
2	136 212 
2	138 139 
2	138 140 
2	138 142 
2	139 141 
2	139 142 
2	139 198 
2	140 142 
2	140 215 
2	141 196 
2	141 198 
2	141 208 
2	142 198 
2	143 145 
2	143 161 
2	144 145 
2	144 163 
2	146 150 
2	146 151 
2	147 149 
2	147 154 
2	147 155 
2	147 178 
2	148 149 
2	148 150 
2	148 177 
2	149 177 
2	149 178 
2	150 151 
2	152 154 
2	153 154 
2	153 155 
2	153 178 
2	153 180 
2	153 182 
2	154 155 
2	155 178 
2	156 158 
2	156 160 
2	156 161 
2	156 189 
2	156 230 
2	157 159 
2	157 160 
2	157 161 
2	157 200 
2	157 201 
2	158 161 
2	158 184 
2	159 160 
2	159 199 
2	159 201 
2	160 161 
2	160 230 
2	162 163 
2	162 164 
2	162 165 
2	162 203 
2	163 165 
2	164 165 
2	164 170 
2	164 202 
2	164 203 
2	164 205 
2	165 170 
2	165 171 
2	166 168 
2	167 168 
2	167 169 
2	167 176 
2	167 183 
2	167 211 
2	168 169 
2	168 176 
2	169 210 
2	169 211 
2	170 171 
2	170 172 
2	170 175 
2	170 205 
2	171 172 
2	171 174 
2	172 174 
2	172 175 
2	172 225 
2	172 228 
2	173 174 
2	173 220 
2	173 224 
2	174 224 
2	174 228 
2	175 225 
2	176 179 
2	176 183 
2	177 178 
2	177 179 
2	178 179 
2	178 182 
2	179 182 
2	179 183 
2	180 181 
2	180 182 
2	180 184 
2	181 182 
2	181 183 
2	181 184 
2	181 211 
2	182 183 
2	183 211 
2	184 211 
2	185 187 
2	185 188 
2	185 189 
2	185 230 
2	186 188 
2	187 189 
2	189 230 
2	190 192 
2	191 192 
2	193 194 
2	193 195 
2	194 195 
2	195 200 
2	195 201 
2	196 197 
2	196 198 
2	196 208 
2	196 209 
2	197 209 
2	199 201 
2	200 201 
2	202 203 
2	202 205 
2	202 206 
2	204 206 
2	204 218 
2	204 231 
2	205 206 
2	205 232 
2	206 231 
2	206 232 
2	208 209 
2	210 211 
2	212 214 
2	213 214 
2	213 215 
2	216 217 
2	216 218 
2	216 219 
2	216 231 
2	217 218 
2	217 219 
2	218 231 
2	220 221 
2	220 222 
2	220 224 
2	221 222 
2	221 223 
2	221 224 
2	221 227 
2	222 223 
2	224 227 
2	224 228 
2	225 228 
2	225 229 
2	226 227 
2	226 229 
2	227 228 
2	227 229 
2	228 229 
2	231 232 
0	

2
 0.252912 1
2
 0.774923 1
2
 0.282305 1
2
 1 0.544347
2
 1 0.867285
2
 0.38648 1
2
 1 0.425478
2
 0.604695 1
2
 0.497109 1
2
 0.542752 1
2
 0.0584806 1
2
 0.0810412 1
2
 0.120549 1
2
 0.00830145 1
2
 0.230878 1
2
 0.457285 1
2
 1 0.366693
2
 1 0.152608
2
 1 0.184811
2
 1 0.147043
2
 1 0.192129
2
 1 0.0383006
2
 1 0.0907064
2
 1 0.103508
2
 1 0.0861941
2
 1 0.121962
2
 1 0.109214
2
 1 0.0825766
2
 1 0.183008
2
 1 0.169656
2
 1 0.0558094
2
 1 0.0893014
2
 1 0.0963057
2
 1 0.0454761
2
 1 0.164613
2
 1 0.0295854
2
 1 0.064577
2
 1 0.120074
2
 1 0.0902843
2
 1 0.306692
2
 1 0.403949
2
 0.578903 1
2
 0.984456 1
2
 1 0.124404
2
 1 0.0264696
2
 1 0.0468802
2
 1 0.0698016
2
 1 0.0632534
2
 1 0.0668886
2
 1 0.166989
2
 1 0.160727
2
 1 0.158766
2
 1 0.165431
2
 1 0.347614
2
 1 0.162977
2
 1 0.101383
2
 1 0.0667692
2
 1 0.0982435
2
 1 0.353875
2
 1 0.162886
2
 1 0.178891
2
 1 0.189496
2
 1 0.0639183
2
 1 0.0934065
2
 0.0302643 1
2
 0.0567888 1
2
 0.0955218 1
2
 0.59734 1
2
 0.401285 1
2
 1 0.192234
2
 1 0.24518
2
 1 0.225171
2
 1 0.663328
2
 1 0.119359
2
 0.0421431 1
2
 0.184173 1
2
 0.0506964 1
2
 0.194581 1
2
 0.217948 1
2
 1 0.702472
2
 0.12796 1
2
 0.519088 1
2
 0.242539 1
2
 0.720233 1
2
 0.770225 1
2
 0.378614 1
2
 1 0.125663
2
 1 0.514972
2
 1 0.149548
2
 1 0.504023
2
 1 0.263784
2
 1 0.672277
2
 1 0.212137
2
 1 0.224142
2
 1 0.256156
2
 1 0.0559377
2
 1 0.0674508
2
 1 0.0719022
2
 1 0.0407427
2
 1 0.0865929
2
 1 0.2513
2
 1 0.156432
2
 1 0.153783
2
 1 0.377162
2
 0.368801 1
2
 0.71859 1
2
 1 0.155587
2
 1 0.535187
2
 1 0.170107
2
 1 0.33885
2
 0.0481612 1
2
 0.107067 1
2
 0.246437 1
2
 0.564464 1
2
 0.787005 1
2
 0.539569 1
2
 0.661295 1
2
 0.348214 1
2
 0.175571 1
2
 0.0362417 1
2
 1 0.0806001
2
 1 0.155571
2
 1 0.816505
2
 1 0.0545775
2
 1 0.276572
2
 1 0.0797832
2
 1 0.0818143
2
 1 0.057481
2
 1 0.112009
2
 1 0.0215174
2
 1 0.138931
2
 1 0.235903
2
 1 0.241339
2
 1 0.256347
2
 1 0.101726
2
 1 0.417404
2
 1 0.0966017
2
 0.442212 1
2
 0.788862 1
2
 0.43079 1
2
 0.79503 1
2
 0.386894 1
2
 0.745976 1
2
 0.234331 1
2
 0.207255 1
2
 0.708165 1
2
 1 0.0492984
2
 0.747706 1
2
 1 0.433641
2
 1 0.982605
2
 1 0.448969
2
 1 0.866095
2
 0.26426 1
2
 0.187435 1
2
 0.688443 1
2
 1 0.933693
2
 1 0.66902
2
 0.679941 1
2
 0.0482399 1
2
 1 0.453838
2
 0.694017 1
2
 0.0941597 1
2
 0.460049 1
2
 0.121619 1
2
 0.188705 1
2
 0.2204 1
2
 1 0.124569
2
 1 0.477915
2
 1 0.177311
2
 1 0.200781
2
 0.34784 1
2
 0.319086 1
2
 0.230077 1
2
 0.0353689 1
2
 0.140265 1
2
 0.171868 1
2
 1 0.317951
2
 1 0.269863
2
 1 0.994387
2
 1 0.382672
2
 1 0.590732
2
 1 0.339469
2
 0.817232 1
2
 1 0.363883
2
 1 0.28894
2
 1 0.286677
2
 1 0.300841
2
 1 0.222752
2
 1 0.156136
2
 1 0.206107
2
 1 0.0764882
2
 1 0.161036
2
 1 0.158573
2
 0.456118 1
2
 0.736694 1
2
 0.612418 1
2
 0.270433 1
2
 0.127992 1
2
 0.350422 1
2
 1 0.167105
2
 0.376466 1
2
 1 0.515895
2
 0.272503 1
2
 0.19139 1
2
 0.142092 1
2
 0.172518 1
2
 0.0721349 1
2
 0.587409 1
2
 0.4606 1
2
 0.183236 1
2
 1 0.290137
2
 1 0.243659
2
 1 0.0900409
2
 1 0.152928
2
 1 0.0808623
2
 1 0.55113
2
 1 0.247304
2
 1 0.213794
2
 1 0.523509
2
 1 0.290032
2
 0.575849 1
2
 1 0.24235
2
 1 0.920185
2
 1 0.174477
2
 1 0.575263
2
 1 0.435407
2
 1 0.104136
2
 1 0.152907
2
 1 0.50402
2
 1 0.128491
2
 1 0.188505
2
 0.17014 1
2
 0.193497 1
4
 0.966907 0.280117 0.280117 1
4
 0.973688 0.284231 0.284231 1
4
 0.968428 0.283787 0.283787 1
4
 0.972599 0.28602 0.28602 1
4
 0.970164 0.280453 0.280453 1
4
 0.966616 0.277565 0.277565 1
4
 0.961322 0.276344 0.276344 1
4
 0.965139 0.281161 0.281161 1
4
 0.959705 0.27282 0.27282 1
4
 0.963334 0.274996 0.274996 1
4
 1 0.348272 0.348272 0.968473
4
 1 0.344611 0.344611 0.975812
4
 1 0.344283 0.344283 0.971338
4
 1 0.341816 0.341816 0.975267
4
 1 0.352429 0.352429 0.960577
4
 1 0.348582 0.348582 0.963347
4
 1 0.346202 0.346202 0.967642
4
 1 0.341074 0.341074 0.983024
4
 1 0.339628 0.339628 0.988107
4
 1 0.337675 0.337675 0.984827
4
 1 0.336224 0.336224 0.987666
4
 1 0.340107 0.340107 0.978919
4
 1 0.339471 0.339471 0.981263
4
 0.996682 0.329136 0.329136 1
4
 0.994784 0.328692 0.328692 1
4
 0.990925 0.325425 0.325425 1
4
 0.988888 0.320994 0.320994 1
4
 0.995526 0.325626 0.325626 1
4
 0.991256 0.32165 0.32165 1
4
 0.987778 0.317317 0.317317 1
4
 0.998585 0.332525 0.332525 1
4
 0.999329 0.329423 0.329423 1
4
 1 0.334345 0.334345 0.99675
4
 0.992817 0.328777 0.328777 1
4
 0.987542 0.293005 0.293005 1
4
 0.989721 0.292823 0.292823 1
4
 0.991575 0.298722 0.298722 1
4
 0.994879 0.299988 0.299988 1
4
 0.994022 0.296865 0.296865 1
4
 0.976748 0.283413 0.283413 1
4
 0.978098 0.281312 0.281312 1
4
 0.980076 0.285424 0.285424 1
4
 0.974121 0.277776 0.277776 1
4
 0.973213 0.279646 0.279646 1
4
 0.980517 0.287765 0.287765 1
4
 0.979566 0.289291 0.289291 1
4
 0.976094 0.287535 0.287535 1
4
 0.973651 0.28194 0.28194 1
4
 0.981872 0.285632 0.285632 1
4
 0.984038 0.285455 0.285455 1
4
 0.975906 0.277978 0.277978 1
4
 0.981943 0.28202 0.28202 1
4
 0.9789 0.278241 0.278241 1
4
 0.986028 0.289628 0.289628 1
4
 0.982903 0.291344 0.291344 1
4
 0.987876 0.295462 0.295462 1
4
 0.992498 0.293443 0.293443 1
4
 0.9861 0.285965 0.285965 1
4
 0.989644 0.288762 0.288762 1
4
 0.95575 0.298893 0.298893 1
4
 0.955283 0.294726 0.294726 1
4
 0.959436 0.301464 0.301464 1
4
 0.959722 0.299535 0.299535 1
4
 0.952718 0.296019 0.296019 1
4
 0.951755 0.292574 0.292574 1
4
 0.959366 0.303294 0.303294 1
4
 0.952648 0.297816 0.297816 1
4
 0.955317 0.291232 0.291232 1
4
 0.959183 0.297153 0.297153 1
4
 0.950295 0.287278 0.287278 1
4
 0.95122 0.290247 0.290247 1
4
 0.959217 0.295597 0.295597 1
4
 0.959144 0.292146 0.292146 1
4
 0.957172 0.288169 0.288169 1
4
 0.950863 0.286149 0.286149 1
4
 0.95979 0.294435 0.294435 1
4
 0.954529 0.28733 0.28733 1
4
 1 0.280506 0.280506 0.988143
4
 1 0.280772 0.280772 0.985156
4
 1 0.283036 0.283036 0.981224
4
 1 0.28583 0.28583 0.981846
4
 1 0.284175 0.284175 0.98578
4
 1 0.278071 0.278071 0.989327
4
 1 0.281441 0.281441 0.989953
4
 1 0.275655 0.275655 0.996117
4
 1 0.278069 0.278069 0.994925
4
 1 0.280578 0.280578 0.9824
4
 1 0.283263 0.283263 0.975448
4
 1 0.285575 0.285575 0.974062
4
 1 0.285633 0.285633 0.979098
4
 1 0.286924 0.286924 0.97581
4
 1 0.286001 0.286001 0.971046
4
 1 0.291338 0.291338 0.968289
4
 1 0.289698 0.289698 0.971406
4
 1 0.292792 0.292792 0.979203
4
 1 0.297306 0.297306 0.970023
4
 1 0.291807 0.291807 0.97712
4
 1 0.293126 0.293126 0.973839
4
 1 0.298794 0.298794 0.96995
4
 1 0.296867 0.296867 0.974965
4
 1 0.289426 0.289426 0.981807
4
 1 0.28775 0.28775 0.985741
4
 1 0.286865 0.286865 0.989321
4
 1 0.289292 0.289292 0.988026
4
 1 0.292972 0.292972 0.98331
4
 1 0.294444 0.294444 0.979641
4
 1 0.296887 0.296887 0.966225
4
 1 0.295216 0.295216 0.969336
4
 1 0.300924 0.300924 0.965464
4
 1 0.286782 0.286782 0.983644
4
 1 0.289756 0.289756 0.976428
4
 1 0.284244 0.284244 0.991173
4
 1 0.281706 0.281706 0.992546
4
 1 0.292714 0.292714 0.970026
4
 0.995382 0.27381 0.27381 1
4
 0.991741 0.269187 0.269187 1
4
 0.997316 0.272137 0.272137 1
4
 0.998511 0.27485 0.27485 1
4
 0.992558 0.272238 0.272238 1
4
 1 0.280656 0.280656 0.999282
4
 0.999334 0.277964 0.277964 1
4
 0.998291 0.281134 0.281134 1
4
 0.993488 0.275885 0.275885 1
4
 0.986714 0.268023 0.268023 1
4
 0.985017 0.264817 0.264817 1
4
 0.989854 0.271227 0.271227 1
4
 1 0.275914 0.275914 0.998725
4
 1 0.280839 0.280839 0.99615
4
 1 0.285767 0.285767 0.993471
4
 1 0.284338 0.284338 0.997191
4
 0.979655 0.314302 0.314302 1
4
 0.981706 0.313466 0.313466 1
4
 0.975269 0.308951 0.308951 1
4
 0.980604 0.309875 0.309875 1
4
 0.976945 0.305812 0.305812 1
4
 0.974612 0.305868 0.305868 1
4
 0.98487 0.321933 0.321933 1
4
 0.982846 0.31755 0.31755 1
4
 0.976402 0.312976 0.312976 1
4
 0.977828 0.316429 0.316429 1
4
 0.986932 0.321077 0.321077 1
4
 0.983798 0.313077 0.313077 1
4
 0.976661 0.262023 0.262023 1
4
 0.982373 0.26776 0.26776 1
4
 0.976991 0.26422 0.26422 1
4
 0.980684 0.264557 0.264557 1
4
 0.97893 0.268298 0.268298 1
4
 0.982853 0.270942 0.270942 1
4
 0.973417 0.259183 0.259183 1
4
 0.977097 0.259513 0.259513 1
4
 0.969204 0.254519 0.254519 1
4
 0.982812 0.265194 0.265194 1
4
 0.987638 0.271614 0.271614 1
4
 0.984985 0.271594 0.271594 1
4
 0.969424 0.258419 0.258419 1
4
 0.969531 0.256653 0.256653 1
4
 0.975678 0.265389 0.265389 1
4
 0.971965 0.261747 0.261747 1
4
 0.929993 0.234169 0.234169 1
4
 0.931871 0.234442 0.234442 1
4
 0.930965 0.232044 0.232044 1
4
 0.925519 0.230821 0.230821 1
4
 0.925656 0.22906 0.22906 1
4
 0.933686 0.237722 0.237722 1
4
 0.931596 0.239122 0.239122 1
4
 0.927322 0.23405 0.23405 1
4
 0.928988 0.236504 0.236504 1
4
 0.936168 0.241126 0.241126 1
4
 0.933723 0.240723 0.240723 1
4
 0.934661 0.235564 0.235564 1
4
 0.937461 0.237747 0.237747 1
4
 0.939497 0.240985 0.240985 1
4
 0.938059 0.241408 0.241408 1
4
 0.928781 0.238174 0.238174 1
4
 0.933515 0.242423 0.242423 1
4
 0.928296 0.239262 0.239262 1
4
 0.930451 0.242282 0.242282 1
4
 0.936549 0.235315 0.235315 1
4
 0.920758 0.227646 0.227646 1
4
 0.924519 0.233122 0.233122 1
4
 0.922997 0.228944 0.228944 1
4
 0.920894 0.225909 0.225909 1
4
 0.925697 0.236642 0.236642 1
4
 0.941394 0.24073 0.24073 1
4
 0.941674 0.238659 0.238659 1
4
 0.941995 0.244436 0.244436 1
4
 0.948531 0.248425 0.248425 1
4
 0.947148 0.245713 0.245713 1
4
 0.943719 0.241909 0.241909 1
4
 0.945982 0.247855 0.247855 1
4
 0.938096 0.244455 0.244455 1
4
 0.944535 0.24829 0.24829 1
4
 0.942173 0.247829 0.247829 1
4
 0.932575 0.243904 0.243904 1
4
 0.936627 0.246172 0.246172 1
4
 0.939712 0.247414 0.247414 1
4
 0.961628 0.251559 0.251559 1
4
 0.965229 0.253769 0.253769 1
4
 0.960263 0.251394 0.251394 1
4
 0.964871 0.258099 0.258099 1
4
 0.962421 0.254975 0.254975 1
4
 0.967651 0.258806 0.258806 1
4
 0.961734 0.24984 0.24984 1
4
 0.956787 0.247501 0.247501 1
4
 1 0.324758 0.324758 0.974985
4
 1 0.328342 0.328342 0.972182
4
 1 0.325181 0.325181 0.968883
4
 1 0.329646 0.329646 0.96899
4
 1 0.32703 0.32703 0.969607
4
 1 0.322366 0.322366 0.973894
4
 1 0.32166 0.32166 0.972258
4
 1 0.328017 0.328017 0.974837
4
 1 0.326199 0.326199 0.978561
4
 1 0.321235 0.321235 0.98197
4
 1 0.320947 0.320947 0.979698
4
 1 0.326414 0.326414 0.982959
4
 1 0.321416 0.321416 0.991372
4
 1 0.323268 0.323268 0.990741
4
 1 0.327202 0.327202 0.986085
4
 1 0.329205 0.329205 0.982259
4
 1 0.321545 0.321545 0.988449
4
 1 0.329799 0.329799 0.975748
4
 1 0.332955 0.332955 0.968843
4
 1 0.336604 0.336604 0.967394
4
 1 0.334738 0.334738 0.971089
4
 1 0.332884 0.332884 0.974798
4
 1 0.330776 0.330776 0.978778
4
 1 0.32298 0.32298 0.982887
4
 1 0.32308 0.32308 0.984946
4
 0.970544 0.308873 0.308873 1
4
 0.966058 0.307996 0.307996 1
4
 0.971961 0.312281 0.312281 1
4
 0.966346 0.306026 0.306026 1
4
 0.973451 0.311042 0.311042 1
4
 0.967826 0.304812 0.304812 1
4
 0.967861 0.303215 0.303215 1
4
 0.971376 0.304578 0.304578 1
4
 0.963353 0.303947 0.303947 1
4
 0.963674 0.300421 0.300421 1
4
 0.99846 0.311809 0.311809 1
4
 0.999357 0.314137 0.314137 1
4
 0.995518 0.312151 0.312151 1
4
 0.990838 0.30423 0.30423 1
4
 0.991506 0.306613 0.306613 1
4
 0.997862 0.309578 0.309578 1
4
 0.99347 0.305174 0.305174 1
4
 1 0.315932 0.315932 0.997208
4
 1 0.311813 0.311813 0.998702
4
 1 0.316059 0.316059 0.994269
4
 1 0.319838 0.319838 0.995679
4
 0.999845 0.317164 0.317164 1
4
 1 0.318133 0.318133 0.993376
4
 1 0.319041 0.319041 0.999519
4
 1 0.322495 0.322495 0.99713
4
 1 0.325595 0.325595 0.99037
4
 1 0.324374 0.324374 0.99315
4
 0.992139 0.312027 0.312027 1
4
 0.993774 0.315608 0.315608 1
4
 0.99839 0.319335 0.319335 1
4
 0.99199 0.309567 0.309567 1
4
 0.989918 0.312471 0.312471 1
4
 0.988141 0.306491 0.306491 1
4
 0.984601 0.303522 0.303522 1
4
 0.985488 0.309208 0.309208 1
4
 0.984272 0.305721 0.305721 1
4
 0.996155 0.31979 0.31979 1
4
 0.994854 0.320946 0.320946 1
4
 0.990587 0.317027 0.317027 1
4
 0.987112 0.312757 0.312757 1
4
 1 0.326717 0.326717 0.996717
4
 1 0.328327 0.328327 0.998021
4
 1 0.333009 0.333009 0.99411
4
 1 0.32862 0.32862 0.992739
4
 1 0.331679 0.331679 0.991477
4
 0.999476 0.324736 0.324736 1
4
 1 0.325196 0.325196 0.99523
4
 0.993889 0.321931 0.321931 1
4
 1 0.331164 0.331164 0.997907
4
 0.986154 0.313716 0.313716 1
4
 1 0.337931 0.337931 0.991807
4
 1 0.334544 0.334544 0.991364
4
 0.957576 0.250863 0.250863 1
4
 0.952826 0.245328 0.245328 1
4
 0.953148 0.247385 0.247385 1
4
 0.963145 0.261167 0.261167 1
4
 0.960699 0.258006 0.258006 1
4
 0.96502 0.264821 0.264821 1
4
 0.96376 0.265778 0.265778 1
4
 0.960667 0.263434 0.263434 1
4
 0.957652 0.257236 0.257236 1
4
 0.958943 0.260122 0.260122 1
4
 0.962171 0.257555 0.257555 1
4
 0.966499 0.264357 0.264357 1
4
 0.968415 0.264289 0.264289 1
4
 0.9674 0.261424 0.261424 1
4
 0.956684 0.253678 0.253678 1
4
 0.955289 0.250909 0.250909 1
4
 0.937339 0.263621 0.263621 1
4
 0.939371 0.261915 0.261915 1
4
 0.940497 0.264526 0.264526 1
4
 0.934957 0.25755 0.25755 1
4
 0.942118 0.27012 0.27012 1
4
 0.945292 0.271047 0.271047 1
4
 0.948798 0.276094 0.276094 1
4
 0.9436 0.273659 0.273659 1
4
 0.946532 0.276145 0.276145 1
4
 0.941694 0.267923 0.267923 1
4
 0.940009 0.270505 0.270505 1
4
 0.943736 0.266189 0.266189 1
4
 0.946243 0.266422 0.266422 1
4
 0.938177 0.25917 0.25917 1
4
 0.941232 0.260686 0.260686 1
4
 0.948371 0.273848 0.273848 1
4
 0.948725 0.272265 0.272265 1
4
 0.947376 0.269077 0.269077 1
4
 1 0.350127 0.350127 0.946894
4
 1 0.353209 0.353209 0.946044
4
 1 0.353958 0.353958 0.948946
4
 1 0.349919 0.349919 0.952038
4
 1 0.345586 0.345586 0.952361
4
 1 0.346045 0.346045 0.950157
4
 1 0.345402 0.345402 0.95432
4
 1 0.353544 0.353544 0.943184
4
 1 0.346455 0.346455 0.945234
4
 1 0.346373 0.346373 0.947285
4
 1 0.357412 0.357412 0.945229
4
 1 0.359779 0.359779 0.94121
4
 1 0.360542 0.360542 0.944098
4
 1 0.35641 0.35641 0.952249
4
 1 0.354082 0.354082 0.951218
4
 1 0.352343 0.352343 0.955351
4
 1 0.350788 0.350788 0.959144
4
 1 0.348497 0.348497 0.958106
4
 1 0.345818 0.345818 0.958537
4
 1 0.345523 0.345523 0.956605
4
 0.967116 0.269025 0.269025 1
4
 0.970158 0.27125 0.27125 1
4
 0.973134 0.271507 0.271507 1
4
 0.9703 0.267986 0.267986 1
4
 0.968891 0.272232 0.272232 1
4
 0.962753 0.267617 0.267617 1
4
 0.967987 0.274065 0.274065 1
4
 0.964448 0.271242 0.271242 1
4
 0.971031 0.276332 0.276332 1
4
 0.97492 0.274744 0.274744 1
4
 1 0.295409 0.295409 0.992277
4
 1 0.296011 0.296011 0.98913
4
 1 0.302558 0.302558 0.984811
4
 1 0.301409 0.301409 0.98728
4
 1 0.300772 0.300772 0.98426
4
 1 0.29811 0.29811 0.991794
4
 1 0.286744 0.286744 0.995886
4
 1 0.290795 0.290795 0.991094
4
 1 0.291851 0.291851 0.987434
4
 1 0.288752 0.288752 0.997971
4
 1 0.292831 0.292831 0.993169
4
 1 0.294908 0.294908 0.995843
4
 1 0.290676 0.290676 0.999649
4
 1 0.289341 0.289341 0.994806
4
 0.998706 0.28684 0.28684 1
4
 0.995572 0.280091 0.280091 1
4
 0.996914 0.283234 0.283234 1
4
 1 0.298147 0.298147 0.985145
4
 1 0.294494 0.294494 0.986363
4
 1 0.305387 0.305387 0.983853
4
 1 0.304741 0.304741 0.980843
4
 1 0.309063 0.309063 0.978352
4
 1 0.309691 0.309691 0.980767
4
 1 0.303977 0.303977 0.988238
4
 1 0.300898 0.300898 0.990829
4
 1 0.308516 0.308516 0.983226
4
 1 0.307241 0.307241 0.985287
4
 1 0.303501 0.303501 0.99268
4
 1 0.300649 0.300649 0.992756
4
 1 0.307326 0.307326 0.989012
4
 1 0.306987 0.306987 0.987203
4
 0.987326 0.301712 0.301712 1
4
 0.98379 0.298789 0.298789 1
4
 0.984303 0.29611 0.29611 1
4
 0.989282 0.300295 0.300295 1
4
 0.97734 0.295798 0.295798 1
4
 0.970062 0.290667 0.290667 1
4
 0.970206 0.289092 0.289092 1
4
 0.974384 0.291367 0.291367 1
4
 0.977013 0.297942 0.297942 1
4
 0.97457 0.297389 0.297389 1
4
 0.984453 0.30113 0.30113 1
4
 0.981438 0.295539 0.295539 1
4
 0.97796 0.293745 0.293745 1
4
 0.980598 0.300374 0.300374 1
4
 0.966514 0.286396 0.286396 1
4
 0.965433 0.289484 0.289484 1
4
 0.962801 0.285219 0.285219 1
4
 0.970862 0.294615 0.294615 1
4
 0.968107 0.291623 0.291623 1
4
 0.958381 0.276082 0.276082 1
4
 0.962834 0.279964 0.279964 1
4
 0.957412 0.271659 0.271659 1
4
 0.954804 0.27065 0.27065 1
4
 0.954448 0.272224 0.272224 1
4
 0.962187 0.280895 0.280895 1
4
 0.955164 0.276365 0.276365 1
4
 0.958491 0.279741 0.279741 1
4
 0.953807 0.273129 0.273129 1
4
 1 0.32429 0.32429 0.959983
4
 1 0.325619 0.325619 0.963108
4
 1 0.328019 0.328019 0.956579
4
 1 0.329766 0.329766 0.96041
4
 1 0.32983 0.32983 0.958045
4
 1 0.321966 0.321966 0.963866
4
 1 0.326342 0.326342 0.955794
4
 1 0.318627 0.318627 0.961135
4
 1 0.324091 0.324091 0.955974
4
 1 0.32113 0.32113 0.957763
4
 1 0.320321 0.320321 0.963075
4
 1 0.329425 0.329425 0.962746
4
 1 0.327132 0.327132 0.966171
4
 1 0.321634 0.321634 0.96621
4
 1 0.321761 0.321761 0.968813
4
 1 0.327817 0.327817 0.952584
4
 1 0.331917 0.331917 0.953864
4
 1 0.332706 0.332706 0.95123
4
 1 0.314048 0.314048 0.960994
4
 1 0.317144 0.317144 0.9597
4
 1 0.310495 0.310495 0.966614
4
 1 0.310153 0.310153 0.964846
4
 1 0.316344 0.316344 0.965022
4
 1 0.313256 0.313256 0.966323
4
 1 0.322582 0.322582 0.954547
4
 1 0.316515 0.316515 0.957623
4
 1 0.31069 0.31069 0.959775
4
 1 0.309538 0.309538 0.962757
4
 1 0.306837 0.306837 0.963623
4
 1 0.305192 0.305192 0.963012
4
 1 0.306036 0.306036 0.968388
4
 1 0.305301 0.305301 0.972704
4
 1 0.302432 0.302432 0.972778
4
 1 0.309098 0.309098 0.969871
4
 1 0.30406 0.30406 0.966004
4
 1 0.302099 0.302099 0.970999
4
 1 0.303587 0.303587 0.97777
4
 1 0.299231 0.299231 0.981507
4
 1 0.307239 0.307239 0.977805
4
 1 0.299867 0.299867 0.978979
4
 1 0.301373 0.301373 0.975327
4
 1 0.308016 0.308016 0.972412
4
 1 0.333685 0.333685 0.957685
4
 1 0.333949 0.333949 0.962851
4
 1 0.331298 0.331298 0.963465
4
 1 0.337501 0.337501 0.957504
4
 1 0.337321 0.337321 0.959473
4
 1 0.334543 0.334543 0.952687
4
 1 0.338096 0.338096 0.950871
4
 1 0.338015 0.338015 0.952935
4
 1 0.331624 0.331624 0.966277
4
 1 0.337941 0.337941 0.964217
4
 1 0.337653 0.337653 0.962274
4
 1 0.338899 0.338899 0.948245
4
 1 0.34459 0.34459 0.966197
4
 1 0.344292 0.344292 0.962342
4
 1 0.342384 0.342384 0.966018
4
 1 0.339784 0.339784 0.97443
4
 1 0.340046 0.340046 0.970324
4
 1 0.337892 0.337892 0.974286
4
 1 0.339752 0.339752 0.966453
4
 1 0.341354 0.341354 0.960835
4
 1 0.33343 0.33343 0.982037
4
 1 0.335471 0.335471 0.978227
4
 1 0.336718 0.336718 0.980715
4
 1 0.33573 0.33573 0.974105
4
 0.970821 0.287086 0.287086 1
4
 0.962944 0.283674 0.283674 1
4
 0.97847 0.291111 0.291111 1
4
 0.986918 0.297029 0.297029 1
4
 0.95055 0.245373 0.245373 1
4
 0.947109 0.241573 0.241573 1
4
 0.957942 0.261921 0.261921 1
4
 0.961353 0.268849 0.268849 1
4
 0.958052 0.265392 0.265392 1
4
 0.955654 0.26197 0.26197 1
4
 0.954936 0.255759 0.255759 1
4
 0.95226 0.250161 0.250161 1
4
 0.951088 0.252341 0.252341 1
4
 0.95237 0.255172 0.255172 1
4
 0.95394 0.258676 0.258676 1
4
 0.947429 0.243599 0.243599 1
4
 0.966579 0.275327 0.275327 1
4
 0.959416 0.270334 0.270334 1
4
 0.956122 0.266858 0.266858 1
4
 0.953729 0.263416 0.263416 1
4
 0.953198 0.267199 0.267199 1
4
 0.951665 0.263369 0.263369 1
4
 0.959738 0.268987 0.268987 1
4
 0.954049 0.262104 0.262104 1
4
 0.952243 0.277335 0.277335 1
4
 0.955168 0.282581 0.282581 1
4
 0.95556 0.280722 0.280722 1
4
 0.949615 0.278999 0.278999 1
4
 0.952531 0.281758 0.281758 1
4
 0.963454 0.292615 0.292615 1
4
 0.961473 0.28863 0.28863 1
4
 0.961867 0.286732 0.286732 1
4
 0.967168 0.293169 0.293169 1
4
 0.967604 0.296232 0.296232 1
4
 0.955916 0.279099 0.279099 1
4
 0.951245 0.272503 0.272503 1
4
 0.960433 0.290214 0.290214 1
4
 0.96306 0.296525 0.296525 1
4
 0.966557 0.297857 0.297857 1
4
 0.958852 0.284379 0.284379 1
4
 0.955813 0.285429 0.285429 1
4
 0.996295 0.305574 0.305574 1
4
 1 0.309554 0.309554 0.996504
4
 0.999614 0.306869 0.306869 1
4
 1 0.313985 0.313985 0.994864
4
 0.995215 0.302503 0.302503 1
4
 1 0.306776 0.306776 0.997586
4
 1 0.306294 0.306294 0.99446
4
 1 0.313672 0.313672 0.990007
4
 1 0.313769 0.313769 0.99208
4
 1 0.310153 0.310153 0.990786
4
 1 0.303754 0.303754 0.998334
4
 0.99767 0.300622 0.300622 1
4
 0.927361 0.240724 0.240724 1
4
 0.932124 0.247009 0.247009 1
4
 0.932788 0.249854 0.249854 1
4
 0.936174 0.249307 0.249307 1
4
 0.937576 0.251856 0.251856 1
4
 0.937298 0.254042 0.254042 1
4
 0.930176 0.246569 0.246569 1
4
 0.933553 0.246029 0.246029 1
4
 0.932302 0.252114 0.252114 1
4
 0.935338 0.253589 0.253589 1
4
 1 0.300851 0.300851 0.999194
4
 1 0.298899 0.298899 0.998412
4
 1 0.300427 0.300427 0.995282
4
 1 0.307099 0.307099 0.991528
4
 0.997593 0.295794 0.295794 1
4
 0.993945 0.292748 0.292748 1
4
 0.994724 0.291076 0.291076 1
4
 1 0.296091 0.296091 0.998488
4
 0.997702 0.291171 0.291171 1
4
 0.9945 0.288603 0.288603 1
4
 0.987537 0.285288 0.285288 1
4
 0.980951 0.278739 0.278739 1
4
 0.984366 0.280891 0.280891 1
4
 0.987905 0.283638 0.283638 1
4
 0.990863 0.285631 0.285631 1
4
 1 0.293334 0.293334 0.999162
4
 0.940697 0.24957 0.24957 1
4
 0.939013 0.250857 0.250857 1
4
 0.950096 0.255219 0.255219 1
4
 0.946161 0.251295 0.251295 1
4
 0.947721 0.254746 0.254746 1
4
 0.949602 0.258677 0.258677 1
4
 0.945669 0.254699 0.254699 1
4
 0.942106 0.252122 0.252122 1
4
 0.947727 0.263389 0.263389 1
4
 0.949072 0.262391 0.262391 1
4
 0.950247 0.267755 0.267755 1
4
 0.946203 0.259613 0.259613 1
4
 0.942637 0.256986 0.256986 1
4
 0.947374 0.26492 0.26492 1
4
 0.942357 0.259216 0.259216 1
4
 0.943976 0.256013 0.256013 1
4
 0.940139 0.255622 0.255622 1
4
 0.944863 0.263514 0.263514 1
4
 0.943673 0.278126 0.278126 1
4
 0.946785 0.285181 0.285181 1
4
 0.946606 0.280652 0.280652 1
4
 0.949512 0.283428 0.283428 1
4
 0.948666 0.291521 0.291521 1
4
 0.944413 0.276538 0.276538 1
4
 0.950256 0.28181 0.28181 1
4
 1 0.297049 0.297049 0.979054
4
 1 0.30048 0.30048 0.970384
4
 0.981481 0.306001 0.306001 1
4
 0.979027 0.305433 0.305433 1
4
 0.977819 0.301989 0.301989 1
4
 0.972607 0.298367 0.298367 1
4
 0.973045 0.301483 0.301483 1
4
 1 0.328321 0.328321 0.988482
4
 1 0.331575 0.331575 0.981891
4
 1 0.332807 0.332807 0.984388
4
 1 0.331377 0.331377 0.987226
4
 1 0.330134 0.330134 0.989997
4
 0.967209 0.30019 0.30019 1
4
 0.970284 0.298421 0.298421 1
4
 1 0.318163 0.318163 0.988378
4
 1 0.314497 0.314497 0.987088
4
 1 0.31778 0.31778 0.984029
4
 1 0.318584 0.318584 0.978602
4
 1 0.318975 0.318975 0.973823
4
 1 0.316251 0.316251 0.977799
4
 1 0.314215 0.314215 0.984804
4
 1 0.310626 0.310626 0.986058
4
 1 0.315171 0.315171 0.980947
4
 1 0.313869 0.313869 0.983003
4
 1 0.334644 0.334644 0.985897
4
 0.936809 0.256341 0.256341 1
4
 1 0.342416 0.342416 0.948492
4
 1 0.34188 0.34188 0.952754
4
 1 0.341245 0.341245 0.956929
4
 1 0.314794 0.314794 0.971137
4
 1 0.314919 0.314919 0.973753
4
 1 0.311721 0.311721 0.972446
4
 1 0.312229 0.312229 0.977729
4
 1 0.318151 0.318151 0.969576
4
 1 0.314921 0.314921 0.968274
4
 1 0.315558 0.315558 0.976157
4
 0.977763 0.27223 0.27223 1
4
 0.975063 0.271438 0.271438 1
4
 0.981316 0.277127 0.277127 1
4
 0.974916 0.2687 0.2687 1
4
 0.973894 0.265786 0.265786 1
4
 0.981168 0.274332 0.274332 1
4
 0.981533 0.27214 0.27214 1
4
 0.971205 0.265013 0.265013 1
4
 0.985099 0.277036 0.277036 1
4
 0.987682 0.281229 0.281229 1
4
 0.993829 0.285724 0.285724 1
4
 0.99524 0.284642 0.284642 1
4
 0.98812 0.274842 0.274842 1
4
 0.992117 0.277945 0.277945 1
4
 0.988049 0.278981 0.278981 1
4
 0.989452 0.277925 0.277925 1
4
 0.992046 0.282132 0.282132 1
4
 1 0.311571 0.311571 0.982196
1
 1

